10	5
0	1	1
1	2	8	3
2	1	10
3	2	5	9
4	1	6
5	1	2
6	1	11
7	1	11
8	1	11
9	1	11
10	1	11
11	0
0	0	0	0	0	0	0
1	9	0	4	1	3	0
2	4	0	5	0	5	1
3	2	1	5	5	5	5
4	4	3	0	2	4	2
5	1	2	1	1	0	3
6	4	5	2	2	3	5
7	10	2	2	4	2	2
8	3	5	3	3	4	2
9	1	0	2	0	5	1
10	8	0	0	0	0	2
11	0	0	0	0	0	0
6	6	6	7	6
